certificates/rado_a15_c247_N65.cnf
c Rad2 upper bound instance: x1 + 15*x2 - x3 = 247, interval [1,65]
p cnf 65 558
1 9 17 0
-1 -9 -17 0
1 18 24 0
-1 -18 -24 0
1 19 39 0
-1 -19 -39 0
1 20 54 0
-1 -20 -54 0
2 10 17 0
-2 -10 -17 0
2 18 25 0
-2 -18 -25 0
2 19 40 0
-2 -19 -40 0
2 20 55 0
-2 -20 -55 0
3 11 17 0
-3 -11 -17 0
3 18 26 0
-3 -18 -26 0
3 19 41 0
-3 -19 -41 0
3 20 56 0
-3 -20 -56 0
4 12 17 0
-4 -12 -17 0
4 18 27 0
-4 -18 -27 0
4 19 42 0
-4 -19 -42 0
4 20 57 0
-4 -20 -57 0
5 13 17 0
-5 -13 -17 0
5 18 28 0
-5 -18 -28 0
5 19 43 0
-5 -19 -43 0
5 20 58 0
-5 -20 -58 0
6 14 17 0
-6 -14 -17 0
6 18 29 0
-6 -18 -29 0
6 19 44 0
-6 -19 -44 0
6 20 59 0
-6 -20 -59 0
7 15 17 0
-7 -15 -17 0
7 18 30 0
-7 -18 -30 0
7 19 45 0
-7 -19 -45 0
7 20 60 0
-7 -20 -60 0
1 8 16 0
-1 -8 -16 0
8 16 17 0
-8 -16 -17 0
8 18 31 0
-8 -18 -31 0
8 19 46 0
-8 -19 -46 0
8 20 61 0
-8 -20 -61 0
2 9 16 0
-2 -9 -16 0
9 17 0
-9 -17 0
9 18 32 0
-9 -18 -32 0
9 19 47 0
-9 -19 -47 0
9 20 62 0
-9 -20 -62 0
3 10 16 0
-3 -10 -16 0
10 17 18 0
-10 -17 -18 0
10 18 33 0
-10 -18 -33 0
10 19 48 0
-10 -19 -48 0
10 20 63 0
-10 -20 -63 0
4 11 16 0
-4 -11 -16 0
11 17 19 0
-11 -17 -19 0
11 18 34 0
-11 -18 -34 0
11 19 49 0
-11 -19 -49 0
11 20 64 0
-11 -20 -64 0
5 12 16 0
-5 -12 -16 0
12 17 20 0
-12 -17 -20 0
12 18 35 0
-12 -18 -35 0
12 19 50 0
-12 -19 -50 0
12 20 65 0
-12 -20 -65 0
6 13 16 0
-6 -13 -16 0
13 17 21 0
-13 -17 -21 0
13 18 36 0
-13 -18 -36 0
13 19 51 0
-13 -19 -51 0
7 14 16 0
-7 -14 -16 0
14 17 22 0
-14 -17 -22 0
14 18 37 0
-14 -18 -37 0
14 19 52 0
-14 -19 -52 0
8 15 16 0
-8 -15 -16 0
15 17 23 0
-15 -17 -23 0
15 18 38 0
-15 -18 -38 0
15 19 53 0
-15 -19 -53 0
9 16 0
-9 -16 0
16 17 24 0
-16 -17 -24 0
16 18 39 0
-16 -18 -39 0
16 19 54 0
-16 -19 -54 0
10 16 17 0
-10 -16 -17 0
17 25 0
-17 -25 0
17 18 40 0
-17 -18 -40 0
17 19 55 0
-17 -19 -55 0
11 16 18 0
-11 -16 -18 0
17 18 26 0
-17 -18 -26 0
18 41 0
-18 -41 0
18 19 56 0
-18 -19 -56 0
12 16 19 0
-12 -16 -19 0
17 19 27 0
-17 -19 -27 0
18 19 42 0
-18 -19 -42 0
19 57 0
-19 -57 0
13 16 20 0
-13 -16 -20 0
17 20 28 0
-17 -20 -28 0
18 20 43 0
-18 -20 -43 0
19 20 58 0
-19 -20 -58 0
14 16 21 0
-14 -16 -21 0
17 21 29 0
-17 -21 -29 0
18 21 44 0
-18 -21 -44 0
19 21 59 0
-19 -21 -59 0
15 16 22 0
-15 -16 -22 0
17 22 30 0
-17 -22 -30 0
18 22 45 0
-18 -22 -45 0
19 22 60 0
-19 -22 -60 0
1 15 23 0
-1 -15 -23 0
16 23 0
-16 -23 0
17 23 31 0
-17 -23 -31 0
18 23 46 0
-18 -23 -46 0
19 23 61 0
-19 -23 -61 0
2 15 24 0
-2 -15 -24 0
17 24 32 0
-17 -24 -32 0
18 24 47 0
-18 -24 -47 0
19 24 62 0
-19 -24 -62 0
3 15 25 0
-3 -15 -25 0
16 18 25 0
-16 -18 -25 0
17 25 33 0
-17 -25 -33 0
18 25 48 0
-18 -25 -48 0
19 25 63 0
-19 -25 -63 0
4 15 26 0
-4 -15 -26 0
16 19 26 0
-16 -19 -26 0
17 26 34 0
-17 -26 -34 0
18 26 49 0
-18 -26 -49 0
19 26 64 0
-19 -26 -64 0
5 15 27 0
-5 -15 -27 0
16 20 27 0
-16 -20 -27 0
17 27 35 0
-17 -27 -35 0
18 27 50 0
-18 -27 -50 0
19 27 65 0
-19 -27 -65 0
6 15 28 0
-6 -15 -28 0
16 21 28 0
-16 -21 -28 0
17 28 36 0
-17 -28 -36 0
18 28 51 0
-18 -28 -51 0
7 15 29 0
-7 -15 -29 0
16 22 29 0
-16 -22 -29 0
17 29 37 0
-17 -29 -37 0
18 29 52 0
-18 -29 -52 0
8 15 30 0
-8 -15 -30 0
16 23 30 0
-16 -23 -30 0
17 30 38 0
-17 -30 -38 0
18 30 53 0
-18 -30 -53 0
9 15 31 0
-9 -15 -31 0
16 24 31 0
-16 -24 -31 0
17 31 39 0
-17 -31 -39 0
18 31 54 0
-18 -31 -54 0
10 15 32 0
-10 -15 -32 0
16 25 32 0
-16 -25 -32 0
17 32 40 0
-17 -32 -40 0
18 32 55 0
-18 -32 -55 0
11 15 33 0
-11 -15 -33 0
16 26 33 0
-16 -26 -33 0
17 33 41 0
-17 -33 -41 0
18 33 56 0
-18 -33 -56 0
12 15 34 0
-12 -15 -34 0
16 27 34 0
-16 -27 -34 0
17 34 42 0
-17 -34 -42 0
18 34 57 0
-18 -34 -57 0
13 15 35 0
-13 -15 -35 0
16 28 35 0
-16 -28 -35 0
17 35 43 0
-17 -35 -43 0
18 35 58 0
-18 -35 -58 0
14 15 36 0
-14 -15 -36 0
16 29 36 0
-16 -29 -36 0
17 36 44 0
-17 -36 -44 0
18 36 59 0
-18 -36 -59 0
15 37 0
-15 -37 0
16 30 37 0
-16 -30 -37 0
17 37 45 0
-17 -37 -45 0
18 37 60 0
-18 -37 -60 0
1 14 38 0
-1 -14 -38 0
15 16 38 0
-15 -16 -38 0
16 31 38 0
-16 -31 -38 0
17 38 46 0
-17 -38 -46 0
18 38 61 0
-18 -38 -61 0
2 14 39 0
-2 -14 -39 0
15 17 39 0
-15 -17 -39 0
16 32 39 0
-16 -32 -39 0
17 39 47 0
-17 -39 -47 0
18 39 62 0
-18 -39 -62 0
3 14 40 0
-3 -14 -40 0
15 18 40 0
-15 -18 -40 0
16 33 40 0
-16 -33 -40 0
17 40 48 0
-17 -40 -48 0
18 40 63 0
-18 -40 -63 0
4 14 41 0
-4 -14 -41 0
15 19 41 0
-15 -19 -41 0
16 34 41 0
-16 -34 -41 0
17 41 49 0
-17 -41 -49 0
18 41 64 0
-18 -41 -64 0
5 14 42 0
-5 -14 -42 0
15 20 42 0
-15 -20 -42 0
16 35 42 0
-16 -35 -42 0
17 42 50 0
-17 -42 -50 0
18 42 65 0
-18 -42 -65 0
6 14 43 0
-6 -14 -43 0
15 21 43 0
-15 -21 -43 0
16 36 43 0
-16 -36 -43 0
17 43 51 0
-17 -43 -51 0
7 14 44 0
-7 -14 -44 0
15 22 44 0
-15 -22 -44 0
16 37 44 0
-16 -37 -44 0
17 44 52 0
-17 -44 -52 0
8 14 45 0
-8 -14 -45 0
15 23 45 0
-15 -23 -45 0
16 38 45 0
-16 -38 -45 0
17 45 53 0
-17 -45 -53 0
9 14 46 0
-9 -14 -46 0
15 24 46 0
-15 -24 -46 0
16 39 46 0
-16 -39 -46 0
17 46 54 0
-17 -46 -54 0
10 14 47 0
-10 -14 -47 0
15 25 47 0
-15 -25 -47 0
16 40 47 0
-16 -40 -47 0
17 47 55 0
-17 -47 -55 0
11 14 48 0
-11 -14 -48 0
15 26 48 0
-15 -26 -48 0
16 41 48 0
-16 -41 -48 0
17 48 56 0
-17 -48 -56 0
12 14 49 0
-12 -14 -49 0
15 27 49 0
-15 -27 -49 0
16 42 49 0
-16 -42 -49 0
17 49 57 0
-17 -49 -57 0
13 14 50 0
-13 -14 -50 0
15 28 50 0
-15 -28 -50 0
16 43 50 0
-16 -43 -50 0
17 50 58 0
-17 -50 -58 0
14 51 0
-14 -51 0
15 29 51 0
-15 -29 -51 0
16 44 51 0
-16 -44 -51 0
17 51 59 0
-17 -51 -59 0
14 15 52 0
-14 -15 -52 0
15 30 52 0
-15 -30 -52 0
16 45 52 0
-16 -45 -52 0
17 52 60 0
-17 -52 -60 0
1 13 53 0
-1 -13 -53 0
14 16 53 0
-14 -16 -53 0
15 31 53 0
-15 -31 -53 0
16 46 53 0
-16 -46 -53 0
17 53 61 0
-17 -53 -61 0
2 13 54 0
-2 -13 -54 0
14 17 54 0
-14 -17 -54 0
15 32 54 0
-15 -32 -54 0
16 47 54 0
-16 -47 -54 0
17 54 62 0
-17 -54 -62 0
3 13 55 0
-3 -13 -55 0
14 18 55 0
-14 -18 -55 0
15 33 55 0
-15 -33 -55 0
16 48 55 0
-16 -48 -55 0
17 55 63 0
-17 -55 -63 0
4 13 56 0
-4 -13 -56 0
14 19 56 0
-14 -19 -56 0
15 34 56 0
-15 -34 -56 0
16 49 56 0
-16 -49 -56 0
17 56 64 0
-17 -56 -64 0
5 13 57 0
-5 -13 -57 0
14 20 57 0
-14 -20 -57 0
15 35 57 0
-15 -35 -57 0
16 50 57 0
-16 -50 -57 0
17 57 65 0
-17 -57 -65 0
6 13 58 0
-6 -13 -58 0
14 21 58 0
-14 -21 -58 0
15 36 58 0
-15 -36 -58 0
16 51 58 0
-16 -51 -58 0
7 13 59 0
-7 -13 -59 0
14 22 59 0
-14 -22 -59 0
15 37 59 0
-15 -37 -59 0
16 52 59 0
-16 -52 -59 0
8 13 60 0
-8 -13 -60 0
14 23 60 0
-14 -23 -60 0
15 38 60 0
-15 -38 -60 0
16 53 60 0
-16 -53 -60 0
9 13 61 0
-9 -13 -61 0
14 24 61 0
-14 -24 -61 0
15 39 61 0
-15 -39 -61 0
16 54 61 0
-16 -54 -61 0
10 13 62 0
-10 -13 -62 0
14 25 62 0
-14 -25 -62 0
15 40 62 0
-15 -40 -62 0
16 55 62 0
-16 -55 -62 0
11 13 63 0
-11 -13 -63 0
14 26 63 0
-14 -26 -63 0
15 41 63 0
-15 -41 -63 0
16 56 63 0
-16 -56 -63 0
12 13 64 0
-12 -13 -64 0
14 27 64 0
-14 -27 -64 0
15 42 64 0
-15 -42 -64 0
16 57 64 0
-16 -57 -64 0
13 65 0
-13 -65 0
14 28 65 0
-14 -28 -65 0
15 43 65 0
-15 -43 -65 0
16 58 65 0
-16 -58 -65 0
