certificates/rado_a15_c247_N65.drat
16 -62 13 0
-16 -64 -65 0
-64 -65 0
d -16 -64 -65 0
-65 0
13 0
20 10 0
-20 -62 0
d -20 -9 -62 0
-62 0
16 0
-9 0
-23 0
-6 0
-20 0
17 0
0
